c colouring generated by benchmark framework
p edge 363 6534
v 1 7
v 2 1
v 3 9
v 4 0
v 5 7
v 6 0
v 7 1
v 8 9
v 9 4
v 10 12
v 11 5
v 12 2
v 13 5
v 14 3
v 15 6
v 16 11
v 17 0
v 18 2
v 19 1
v 20 10
v 21 8
v 22 11
v 23 10
v 24 0
v 25 3
v 26 7
v 27 8
v 28 4
v 29 9
v 30 5
v 31 4
v 32 7
v 33 7
v 34 12
v 35 2
v 36 5
v 37 2
v 38 1
v 39 1
v 40 6
v 41 9
v 42 8
v 43 0
v 44 10
v 45 3
v 46 6
v 47 3
v 48 6
v 49 0
v 50 4
v 51 9
v 52 7
v 53 8
v 54 10
v 55 12
v 56 2
v 57 7
v 58 1
v 59 5
v 60 11
v 61 12
v 62 5
v 63 6
v 64 1
v 65 9
v 66 10
v 67 4
v 68 0
v 69 5
v 70 9
v 71 0
v 72 3
v 73 8
v 74 2
v 75 7
v 76 12
v 77 7
v 78 8
v 79 4
v 80 11
v 81 12
v 82 6
v 83 1
v 84 9
v 85 10
v 86 11
v 87 4
v 88 5
v 89 5
v 90 0
v 91 1
v 92 8
v 93 0
v 94 3
v 95 2
v 96 10
v 97 6
v 98 3
v 99 7
v 100 7
v 101 12
v 102 11
v 103 9
v 104 2
v 105 6
v 106 10
v 107 11
v 108 13
v 109 5
v 110 4
v 111 4
v 112 0
v 113 5
v 114 2
v 115 0
v 116 1
v 117 6
v 118 3
v 119 3
v 120 8
v 121 1
v 122 7
v 123 2
v 124 7
v 125 9
v 126 10
v 127 13
v 128 10
v 129 9
v 130 8
v 131 6
v 132 11
v 133 5
v 134 4
v 135 4
v 136 0
v 137 0
v 138 2
v 139 12
v 140 12
v 141 13
v 142 1
v 143 6
v 144 2
v 145 9
v 146 3
v 147 7
v 148 3
v 149 8
v 150 3
v 151 8
v 152 11
v 153 10
v 154 4
v 155 10
v 156 0
v 157 0
v 158 9
v 159 11
v 160 5
v 161 12
v 162 4
v 163 1
v 164 2
v 165 6
v 166 1
v 167 7
v 168 6
v 169 7
v 170 9
v 171 4
v 172 10
v 173 3
v 174 10
v 175 2
v 176 8
v 177 0
v 178 11
v 179 12
v 180 5
v 181 5
v 182 12
v 183 0
v 184 8
v 185 3
v 186 11
v 187 1
v 188 7
v 189 7
v 190 7
v 191 1
v 192 9
v 193 4
v 194 2
v 195 10
v 196 11
v 197 6
v 198 9
v 199 9
v 200 0
v 201 11
v 202 12
v 203 8
v 204 12
v 205 3
v 206 5
v 207 8
v 208 10
v 209 13
v 210 5
v 211 2
v 212 1
v 213 4
v 214 7
v 215 5
v 216 2
v 217 12
v 218 9
v 219 14
v 220 11
v 221 13
v 222 9
v 223 4
v 224 0
v 225 6
v 226 11
v 227 5
v 228 8
v 229 12
v 230 10
v 231 3
v 232 3
v 233 1
v 234 7
v 235 2
v 236 0
v 237 1
v 238 6
v 239 9
v 240 1
v 241 4
v 242 8
v 243 9
v 244 2
v 245 6
v 246 0
v 247 9
v 248 5
v 249 4
v 250 10
v 251 3
v 252 14
v 253 13
v 254 3
v 255 0
v 256 14
v 257 8
v 258 11
v 259 1
v 260 3
v 261 12
v 262 7
v 263 6
v 264 11
v 265 12
v 266 2
v 267 15
v 268 7
v 269 5
v 270 9
v 271 10
v 272 10
v 273 3
v 274 13
v 275 6
v 276 13
v 277 14
v 278 10
v 279 1
v 280 8
v 281 4
v 282 1
v 283 14
v 284 12
v 285 12
v 286 13
v 287 2
v 288 7
v 289 0
v 290 9
v 291 2
v 292 3
v 293 0
v 294 6
v 295 7
v 296 11
v 297 2
v 298 5
v 299 8
v 300 11
v 301 10
v 302 6
v 303 9
v 304 1
v 305 8
v 306 10
v 307 1
v 308 13
v 309 14
v 310 4
v 311 3
v 312 12
v 313 13
v 314 7
v 315 0
v 316 9
v 317 1
v 318 10
v 319 11
v 320 2
v 321 5
v 322 7
v 323 0
v 324 8
v 325 10
v 326 1
v 327 8
v 328 6
v 329 2
v 330 1
v 331 3
v 332 12
v 333 4
v 334 4
v 335 3
v 336 6
v 337 9
v 338 1
v 339 9
v 340 4
v 341 11
v 342 7
v 343 0
v 344 5
v 345 8
v 346 0
v 347 10
v 348 7
v 349 2
v 350 8
v 351 11
v 352 5
v 353 4
v 354 1
v 355 3
v 356 3
v 357 6
v 358 8
v 359 6
v 360 2
v 361 8
v 362 4
v 363 4
